p cnf 176 700
c p weight 74 0 0
c p weight -74 1 0
c p weight 75 1.0 0
c p weight -75 1 0
70 -69 67 0
70 -69 68 0
-70 69 67 0
-70 69 68 0
70 69 -67 -68 0
-70 -69 -67 -68 0
71 67 -68 0
71 -67 68 0
-71 67 68 0
-71 -67 -68 0
72 73 -70 0
72 -70 71 0
-72 73 70 0
-72 70 71 0
72 -70 -67 0
-72 70 -67 0
72 -73 70 67 -71 0
-72 -73 -70 67 -71 0
73 -67 71 0
-73 67 71 0
-74 71 0
73 -74 -67 0
-73 -74 67 0
73 74 67 -71 0
-73 74 -67 -71 0
-75 71 0
73 -75 67 0
-73 -75 -67 0
73 75 -67 -71 0
-73 75 67 -71 0
76 -72 73 0
76 -72 71 0
-76 72 73 0
-76 72 71 0
76 72 -73 -71 0
-76 -72 -73 -71 0
77 73 -71 0
77 -73 71 0
-77 73 71 0
-77 -73 -71 0
78 -76 73 0
78 -76 66 0
-78 76 73 0
-78 76 66 0
78 -76 65 -77 0
78 -76 -65 77 0
-78 76 65 -77 0
-78 76 -65 77 0
78 76 -73 65 77 -66 0
78 76 -73 -65 -77 -66 0
-78 -76 -73 65 77 -66 0
-78 -76 -73 -65 -77 -66 0
80 73 -65 0
80 -73 65 0
-80 73 65 0
-80 -73 -65 0
79 77 -66 0
79 -77 66 0
-79 77 66 0
-79 -77 -66 0
81 -78 80 0
81 -78 64 0
-81 78 80 0
-81 78 64 0
81 -78 63 -66 0
81 -78 -63 66 0
-81 78 63 -66 0
-81 78 -63 66 0
81 78 -80 63 66 -64 0
81 78 -80 -63 -66 -64 0
-81 -78 -80 63 66 -64 0
-81 -78 -80 -63 -66 -64 0
83 80 -63 0
83 -80 63 0
-83 80 63 0
-83 -80 -63 0
82 66 -64 0
82 -66 64 0
-82 66 64 0
-82 -66 -64 0
84 -81 83 0
84 -81 62 0
-84 81 83 0
-84 81 62 0
84 -81 61 -64 0
84 -81 -61 64 0
-84 81 61 -64 0
-84 81 -61 64 0
84 81 -83 61 64 -62 0
84 81 -83 -61 -64 -62 0
-84 -81 -83 61 64 -62 0
-84 -81 -83 -61 -64 -62 0
86 83 -61 0
86 -83 61 0
-86 83 61 0
-86 -83 -61 0
85 64 -62 0
85 -64 62 0
-85 64 62 0
-85 -64 -62 0
87 -84 86 0
87 -84 60 0
-87 84 86 0
-87 84 60 0
87 -84 59 -62 0
87 -84 -59 62 0
-87 84 59 -62 0
-87 84 -59 62 0
87 84 -86 59 62 -60 0
87 84 -86 -59 -62 -60 0
-87 -84 -86 59 62 -60 0
-87 -84 -86 -59 -62 -60 0
89 86 -59 0
89 -86 59 0
-89 86 59 0
-89 -86 -59 0
88 62 -60 0
88 -62 60 0
-88 62 60 0
-88 -62 -60 0
90 -87 89 0
90 -87 58 0
-90 87 89 0
-90 87 58 0
90 -87 57 -60 0
90 -87 -57 60 0
-90 87 57 -60 0
-90 87 -57 60 0
90 87 -89 57 60 -58 0
90 87 -89 -57 -60 -58 0
-90 -87 -89 57 60 -58 0
-90 -87 -89 -57 -60 -58 0
92 89 -57 0
92 -89 57 0
-92 89 57 0
-92 -89 -57 0
91 60 -58 0
91 -60 58 0
-91 60 58 0
-91 -60 -58 0
93 -90 92 0
93 -90 56 0
-93 90 92 0
-93 90 56 0
93 -90 55 -58 0
93 -90 -55 58 0
-93 90 55 -58 0
-93 90 -55 58 0
93 90 -92 55 58 -56 0
93 90 -92 -55 -58 -56 0
-93 -90 -92 55 58 -56 0
-93 -90 -92 -55 -58 -56 0
95 92 -55 0
95 -92 55 0
-95 92 55 0
-95 -92 -55 0
94 58 -56 0
94 -58 56 0
-94 58 56 0
-94 -58 -56 0
96 -93 95 0
96 -93 54 0
-96 93 95 0
-96 93 54 0
96 -93 53 -56 0
96 -93 -53 56 0
-96 93 53 -56 0
-96 93 -53 56 0
96 93 -95 53 56 -54 0
96 93 -95 -53 -56 -54 0
-96 -93 -95 53 56 -54 0
-96 -93 -95 -53 -56 -54 0
98 95 -53 0
98 -95 53 0
-98 95 53 0
-98 -95 -53 0
97 56 -54 0
97 -56 54 0
-97 56 54 0
-97 -56 -54 0
99 -96 98 0
99 -96 52 0
-99 96 98 0
-99 96 52 0
99 -96 51 -54 0
99 -96 -51 54 0
-99 96 51 -54 0
-99 96 -51 54 0
99 96 -98 51 54 -52 0
99 96 -98 -51 -54 -52 0
-99 -96 -98 51 54 -52 0
-99 -96 -98 -51 -54 -52 0
101 98 -51 0
101 -98 51 0
-101 98 51 0
-101 -98 -51 0
100 54 -52 0
100 -54 52 0
-100 54 52 0
-100 -54 -52 0
102 -99 101 0
102 -99 50 0
-102 99 101 0
-102 99 50 0
102 -99 49 -52 0
102 -99 -49 52 0
-102 99 49 -52 0
-102 99 -49 52 0
102 99 -101 49 52 -50 0
102 99 -101 -49 -52 -50 0
-102 -99 -101 49 52 -50 0
-102 -99 -101 -49 -52 -50 0
104 101 -49 0
104 -101 49 0
-104 101 49 0
-104 -101 -49 0
103 52 -50 0
103 -52 50 0
-103 52 50 0
-103 -52 -50 0
105 -102 104 0
105 -102 48 0
-105 102 104 0
-105 102 48 0
105 -102 47 -50 0
105 -102 -47 50 0
-105 102 47 -50 0
-105 102 -47 50 0
105 102 -104 47 50 -48 0
105 102 -104 -47 -50 -48 0
-105 -102 -104 47 50 -48 0
-105 -102 -104 -47 -50 -48 0
107 104 -47 0
107 -104 47 0
-107 104 47 0
-107 -104 -47 0
106 50 -48 0
106 -50 48 0
-106 50 48 0
-106 -50 -48 0
108 -105 107 0
108 -105 46 0
-108 105 107 0
-108 105 46 0
108 -105 45 -48 0
108 -105 -45 48 0
-108 105 45 -48 0
-108 105 -45 48 0
108 105 -107 45 48 -46 0
108 105 -107 -45 -48 -46 0
-108 -105 -107 45 48 -46 0
-108 -105 -107 -45 -48 -46 0
110 107 -45 0
110 -107 45 0
-110 107 45 0
-110 -107 -45 0
109 48 -46 0
109 -48 46 0
-109 48 46 0
-109 -48 -46 0
111 -108 110 0
111 -108 44 0
-111 108 110 0
-111 108 44 0
111 -108 43 -46 0
111 -108 -43 46 0
-111 108 43 -46 0
-111 108 -43 46 0
111 108 -110 43 46 -44 0
111 108 -110 -43 -46 -44 0
-111 -108 -110 43 46 -44 0
-111 -108 -110 -43 -46 -44 0
113 110 -43 0
113 -110 43 0
-113 110 43 0
-113 -110 -43 0
112 46 -44 0
112 -46 44 0
-112 46 44 0
-112 -46 -44 0
114 -111 113 0
114 -111 42 0
-114 111 113 0
-114 111 42 0
114 -111 41 -44 0
114 -111 -41 44 0
-114 111 41 -44 0
-114 111 -41 44 0
114 111 -113 41 44 -42 0
114 111 -113 -41 -44 -42 0
-114 -111 -113 41 44 -42 0
-114 -111 -113 -41 -44 -42 0
116 113 -41 0
116 -113 41 0
-116 113 41 0
-116 -113 -41 0
115 44 -42 0
115 -44 42 0
-115 44 42 0
-115 -44 -42 0
117 -114 116 0
117 -114 40 0
-117 114 116 0
-117 114 40 0
117 -114 39 -42 0
117 -114 -39 42 0
-117 114 39 -42 0
-117 114 -39 42 0
117 114 -116 39 42 -40 0
117 114 -116 -39 -42 -40 0
-117 -114 -116 39 42 -40 0
-117 -114 -116 -39 -42 -40 0
119 116 -39 0
119 -116 39 0
-119 116 39 0
-119 -116 -39 0
118 42 -40 0
118 -42 40 0
-118 42 40 0
-118 -42 -40 0
120 -117 119 0
120 -117 38 0
-120 117 119 0
-120 117 38 0
120 -117 37 -40 0
120 -117 -37 40 0
-120 117 37 -40 0
-120 117 -37 40 0
120 117 -119 37 40 -38 0
120 117 -119 -37 -40 -38 0
-120 -117 -119 37 40 -38 0
-120 -117 -119 -37 -40 -38 0
122 119 -37 0
122 -119 37 0
-122 119 37 0
-122 -119 -37 0
121 40 -38 0
121 -40 38 0
-121 40 38 0
-121 -40 -38 0
123 -120 122 0
123 -120 36 0
-123 120 122 0
-123 120 36 0
123 -120 35 -38 0
123 -120 -35 38 0
-123 120 35 -38 0
-123 120 -35 38 0
123 120 -122 35 38 -36 0
123 120 -122 -35 -38 -36 0
-123 -120 -122 35 38 -36 0
-123 -120 -122 -35 -38 -36 0
125 122 -35 0
125 -122 35 0
-125 122 35 0
-125 -122 -35 0
124 38 -36 0
124 -38 36 0
-124 38 36 0
-124 -38 -36 0
126 -123 125 0
126 -123 34 0
-126 123 125 0
-126 123 34 0
126 -123 33 -36 0
126 -123 -33 36 0
-126 123 33 -36 0
-126 123 -33 36 0
126 123 -125 33 36 -34 0
126 123 -125 -33 -36 -34 0
-126 -123 -125 33 36 -34 0
-126 -123 -125 -33 -36 -34 0
128 125 -33 0
128 -125 33 0
-128 125 33 0
-128 -125 -33 0
127 36 -34 0
127 -36 34 0
-127 36 34 0
-127 -36 -34 0
129 -126 128 0
129 -126 32 0
-129 126 128 0
-129 126 32 0
129 -126 31 -34 0
129 -126 -31 34 0
-129 126 31 -34 0
-129 126 -31 34 0
129 126 -128 31 34 -32 0
129 126 -128 -31 -34 -32 0
-129 -126 -128 31 34 -32 0
-129 -126 -128 -31 -34 -32 0
131 128 -31 0
131 -128 31 0
-131 128 31 0
-131 -128 -31 0
130 34 -32 0
130 -34 32 0
-130 34 32 0
-130 -34 -32 0
132 -129 131 0
132 -129 30 0
-132 129 131 0
-132 129 30 0
132 -129 29 -32 0
132 -129 -29 32 0
-132 129 29 -32 0
-132 129 -29 32 0
132 129 -131 29 32 -30 0
132 129 -131 -29 -32 -30 0
-132 -129 -131 29 32 -30 0
-132 -129 -131 -29 -32 -30 0
134 131 -29 0
134 -131 29 0
-134 131 29 0
-134 -131 -29 0
133 32 -30 0
133 -32 30 0
-133 32 30 0
-133 -32 -30 0
135 -132 134 0
135 -132 28 0
-135 132 134 0
-135 132 28 0
135 -132 27 -30 0
135 -132 -27 30 0
-135 132 27 -30 0
-135 132 -27 30 0
135 132 -134 27 30 -28 0
135 132 -134 -27 -30 -28 0
-135 -132 -134 27 30 -28 0
-135 -132 -134 -27 -30 -28 0
137 134 -27 0
137 -134 27 0
-137 134 27 0
-137 -134 -27 0
136 30 -28 0
136 -30 28 0
-136 30 28 0
-136 -30 -28 0
138 -135 137 0
138 -135 26 0
-138 135 137 0
-138 135 26 0
138 -135 25 -28 0
138 -135 -25 28 0
-138 135 25 -28 0
-138 135 -25 28 0
138 135 -137 25 28 -26 0
138 135 -137 -25 -28 -26 0
-138 -135 -137 25 28 -26 0
-138 -135 -137 -25 -28 -26 0
140 137 -25 0
140 -137 25 0
-140 137 25 0
-140 -137 -25 0
139 28 -26 0
139 -28 26 0
-139 28 26 0
-139 -28 -26 0
141 -138 140 0
141 -138 24 0
-141 138 140 0
-141 138 24 0
141 -138 23 -26 0
141 -138 -23 26 0
-141 138 23 -26 0
-141 138 -23 26 0
141 138 -140 23 26 -24 0
141 138 -140 -23 -26 -24 0
-141 -138 -140 23 26 -24 0
-141 -138 -140 -23 -26 -24 0
143 140 -23 0
143 -140 23 0
-143 140 23 0
-143 -140 -23 0
142 26 -24 0
142 -26 24 0
-142 26 24 0
-142 -26 -24 0
144 -141 143 0
144 -141 22 0
-144 141 143 0
-144 141 22 0
144 -141 21 -24 0
144 -141 -21 24 0
-144 141 21 -24 0
-144 141 -21 24 0
144 141 -143 21 24 -22 0
144 141 -143 -21 -24 -22 0
-144 -141 -143 21 24 -22 0
-144 -141 -143 -21 -24 -22 0
146 143 -21 0
146 -143 21 0
-146 143 21 0
-146 -143 -21 0
145 24 -22 0
145 -24 22 0
-145 24 22 0
-145 -24 -22 0
147 -144 146 0
147 -144 20 0
-147 144 146 0
-147 144 20 0
147 -144 19 -22 0
147 -144 -19 22 0
-147 144 19 -22 0
-147 144 -19 22 0
147 144 -146 19 22 -20 0
147 144 -146 -19 -22 -20 0
-147 -144 -146 19 22 -20 0
-147 -144 -146 -19 -22 -20 0
149 146 -19 0
149 -146 19 0
-149 146 19 0
-149 -146 -19 0
148 22 -20 0
148 -22 20 0
-148 22 20 0
-148 -22 -20 0
150 -147 149 0
150 -147 18 0
-150 147 149 0
-150 147 18 0
150 -147 17 -20 0
150 -147 -17 20 0
-150 147 17 -20 0
-150 147 -17 20 0
150 147 -149 17 20 -18 0
150 147 -149 -17 -20 -18 0
-150 -147 -149 17 20 -18 0
-150 -147 -149 -17 -20 -18 0
152 149 -17 0
152 -149 17 0
-152 149 17 0
-152 -149 -17 0
151 20 -18 0
151 -20 18 0
-151 20 18 0
-151 -20 -18 0
153 -150 152 0
153 -150 16 0
-153 150 152 0
-153 150 16 0
153 -150 15 -18 0
153 -150 -15 18 0
-153 150 15 -18 0
-153 150 -15 18 0
153 150 -152 15 18 -16 0
153 150 -152 -15 -18 -16 0
-153 -150 -152 15 18 -16 0
-153 -150 -152 -15 -18 -16 0
155 152 -15 0
155 -152 15 0
-155 152 15 0
-155 -152 -15 0
154 18 -16 0
154 -18 16 0
-154 18 16 0
-154 -18 -16 0
156 -153 155 0
156 -153 14 0
-156 153 155 0
-156 153 14 0
156 -153 13 -16 0
156 -153 -13 16 0
-156 153 13 -16 0
-156 153 -13 16 0
156 153 -155 13 16 -14 0
156 153 -155 -13 -16 -14 0
-156 -153 -155 13 16 -14 0
-156 -153 -155 -13 -16 -14 0
158 155 -13 0
158 -155 13 0
-158 155 13 0
-158 -155 -13 0
157 16 -14 0
157 -16 14 0
-157 16 14 0
-157 -16 -14 0
159 -156 158 0
159 -156 12 0
-159 156 158 0
-159 156 12 0
159 -156 11 -14 0
159 -156 -11 14 0
-159 156 11 -14 0
-159 156 -11 14 0
159 156 -158 11 14 -12 0
159 156 -158 -11 -14 -12 0
-159 -156 -158 11 14 -12 0
-159 -156 -158 -11 -14 -12 0
161 158 -11 0
161 -158 11 0
-161 158 11 0
-161 -158 -11 0
160 14 -12 0
160 -14 12 0
-160 14 12 0
-160 -14 -12 0
162 -159 161 0
162 -159 10 0
-162 159 161 0
-162 159 10 0
162 -159 9 -12 0
162 -159 -9 12 0
-162 159 9 -12 0
-162 159 -9 12 0
162 159 -161 9 12 -10 0
162 159 -161 -9 -12 -10 0
-162 -159 -161 9 12 -10 0
-162 -159 -161 -9 -12 -10 0
164 161 -9 0
164 -161 9 0
-164 161 9 0
-164 -161 -9 0
163 12 -10 0
163 -12 10 0
-163 12 10 0
-163 -12 -10 0
165 -162 164 0
165 -162 8 0
-165 162 164 0
-165 162 8 0
165 -162 7 -10 0
165 -162 -7 10 0
-165 162 7 -10 0
-165 162 -7 10 0
165 162 -164 7 10 -8 0
165 162 -164 -7 -10 -8 0
-165 -162 -164 7 10 -8 0
-165 -162 -164 -7 -10 -8 0
167 164 -7 0
167 -164 7 0
-167 164 7 0
-167 -164 -7 0
166 10 -8 0
166 -10 8 0
-166 10 8 0
-166 -10 -8 0
168 -165 167 0
168 -165 6 0
-168 165 167 0
-168 165 6 0
168 -165 5 -8 0
168 -165 -5 8 0
-168 165 5 -8 0
-168 165 -5 8 0
168 165 -167 5 8 -6 0
168 165 -167 -5 -8 -6 0
-168 -165 -167 5 8 -6 0
-168 -165 -167 -5 -8 -6 0
170 167 -5 0
170 -167 5 0
-170 167 5 0
-170 -167 -5 0
169 8 -6 0
169 -8 6 0
-169 8 6 0
-169 -8 -6 0
171 -168 170 0
171 -168 4 0
-171 168 170 0
-171 168 4 0
171 -168 3 -6 0
171 -168 -3 6 0
-171 168 3 -6 0
-171 168 -3 6 0
171 168 -170 3 6 -4 0
171 168 -170 -3 -6 -4 0
-171 -168 -170 3 6 -4 0
-171 -168 -170 -3 -6 -4 0
173 170 -3 0
173 -170 3 0
-173 170 3 0
-173 -170 -3 0
172 6 -4 0
172 -6 4 0
-172 6 4 0
-172 -6 -4 0
174 -171 173 0
174 -171 2 0
-174 171 173 0
-174 171 2 0
174 -171 1 -4 0
174 -171 -1 4 0
-174 171 1 -4 0
-174 171 -1 4 0
174 171 -173 1 4 -2 0
174 171 -173 -1 -4 -2 0
-174 -171 -173 1 4 -2 0
-174 -171 -173 -1 -4 -2 0
176 173 -1 0
176 -173 1 0
-176 173 1 0
-176 -173 -1 0
175 4 -2 0
175 -4 2 0
-175 4 2 0
-175 -4 -2 0
